NAME : rnd46_20.tsp
TYPE : TSP
DIMENSION : 20
EDGE_WEIGHT_TYPE : EUC_2D
NODE_COORD_SECTION
1 634 155
2 956 298
3 153 191
4 646 299
5 150 623
6 440 751
7 294 624
8 836 508
9 749 657
10 285 73
11 617 4
12 565 737
13 900 934
14 327 319
15 684 988
16 269 371
17 288 349
18 313 177
19 550 742
20 395 126
